
List of user-set options:

                                    Name   Value                used
                        file_print_level = 5                     yes
                   hessian_approximation = limited-memory        yes
                           linear_solver = mumps                 yes
                                max_iter = 200                   yes
                             output_file = IPOPT.out             yes
                             print_level = 0                     yes
                      print_user_options = yes                   yes
                                      sb = yes                   yes
                                     tol = 1e-05                 yes
This is Ipopt version 3.14.12, running with linear solver MUMPS 5.2.1.

Number of nonzeros in equality constraint Jacobian...:        0
Number of nonzeros in inequality constraint Jacobian.:     6290
Number of nonzeros in Lagrangian Hessian.............:        0

Total number of variables............................:       74
                     variables with only lower bounds:        0
                variables with lower and upper bounds:        0
                     variables with only upper bounds:        0
Total number of equality constraints.................:        0
Total number of inequality constraints...............:       85
        inequality constraints with only lower bounds:        8
   inequality constraints with lower and upper bounds:       71
        inequality constraints with only upper bounds:        6

iter    objective    inf_pr   inf_du lg(mu)  ||d||  lg(rg) alpha_du alpha_pr  ls
   0  2.1827474e+00 3.09e+00 1.88e+01   0.0 0.00e+00    -  0.00e+00 0.00e+00   0
   1  9.3920594e-01 2.92e+00 2.66e+01  -0.7 4.43e-01    -  1.46e-01 4.00e-02f  1
   2  8.3939052e-01 1.73e+00 1.88e+01  -1.5 5.16e-02    -  1.00e+00 4.55e-01f  1
   3  9.0616763e-01 8.63e-01 1.14e+01  -1.7 3.89e-02    -  7.59e-01 5.25e-01h  1
   4  1.9160768e+00 2.50e-01 1.02e+02  -1.8 8.98e-02    -  7.17e-01 9.39e-01h  1
   5  1.4103385e+00 4.29e-01 4.71e+01  -1.6 3.11e-01    -  2.97e-01 4.98e-01f  1
   6  1.2359933e+00 4.65e-01 2.11e+01  -0.1 5.23e+00    -  9.63e-02 3.39e-02f  1
   7  1.4427863e+00 3.09e-01 2.22e+01  -0.8 2.06e-01    -  1.00e+00 9.04e-01h  1
   8  1.1388743e+00 8.71e-02 1.30e+01  -0.9 8.89e-02    -  1.00e+00 1.00e+00f  1
   9  1.3056781e+00 6.18e-02 2.26e+01  -1.1 6.41e-02    -  1.00e+00 1.00e+00h  1
iter    objective    inf_pr   inf_du lg(mu)  ||d||  lg(rg) alpha_du alpha_pr  ls
  10  9.1930902e-01 7.08e-02 2.02e+01  -1.3 3.10e-02    -  1.00e+00 1.00e+00h  1
  11  9.8063618e-01 7.46e-02 3.09e+01  -1.4 4.14e-02    -  7.59e-01 8.56e-01H  1
  12  9.2633665e-01 7.05e-02 2.38e+01  -1.6 2.94e-02    -  1.00e+00 1.00e+00f  1
  13  7.9557657e-01 9.54e-02 1.43e+01  -1.7 7.57e-02    -  9.40e-01 7.08e-01h  1
  14  7.4710888e-01 4.31e-02 1.21e+01  -2.1 3.39e-02    -  1.00e+00 5.63e-01h  1
  15  7.7442366e-01 5.50e-02 1.15e+01  -1.9 4.44e-02    -  7.33e-01 3.90e-01f  2
  16  7.5101578e-01 3.48e-02 1.02e+01  -2.0 1.55e-01    -  2.96e-01 8.78e-02H  1
  17  1.0433857e+00 1.40e-01 1.59e+01  -1.5 8.16e-02    -  8.39e-01 4.73e-01f  2
  18  8.8971090e-01 5.67e-02 1.01e+01  -1.6 2.50e-02    -  1.00e+00 1.00e+00h  1
  19  8.0199206e-01 4.98e-02 8.58e+00  -1.6 3.74e-02    -  1.00e+00 7.79e-01h  1
iter    objective    inf_pr   inf_du lg(mu)  ||d||  lg(rg) alpha_du alpha_pr  ls
  20  8.1952673e-01 4.14e-02 7.42e+00  -1.6 1.82e-02    -  1.00e+00 5.00e-01f  2
  21  9.0641850e-01 4.35e-02 2.04e+01  -1.6 2.67e-02    -  1.00e+00 1.00e+00h  1
  22  9.4011408e-01 2.38e-02 2.59e+01  -1.7 3.92e-02    -  1.00e+00 6.99e-01H  1
  23  9.4493836e-01 4.17e-02 1.54e+01  -1.4 2.97e-02    -  1.00e+00 1.00e+00f  1
  24  8.6489421e-01 4.61e-02 1.16e+01  -1.5 1.95e-02    -  8.30e-01 1.00e+00h  1
  25  9.1419375e-01 3.40e-02 1.30e+01  -1.5 2.43e-02    -  1.00e+00 1.00e+00h  1
  26  1.1085540e+00 7.10e-02 1.60e+01  -1.0 1.67e-01    -  1.00e+00 2.69e-01f  2
  27  1.2602166e+00 4.11e-02 2.55e+01  -1.1 3.99e-02    -  1.00e+00 1.00e+00h  1
  28  1.0890310e+00 5.11e-02 2.16e+01  -1.1 2.63e-02    -  1.00e+00 1.00e+00h  1
  29  1.1472229e+00 3.20e-02 1.96e+01  -1.1 4.19e-02    -  1.00e+00 1.00e+00h  1
iter    objective    inf_pr   inf_du lg(mu)  ||d||  lg(rg) alpha_du alpha_pr  ls
  30  1.1834121e+00 2.51e-02 2.46e+01  -1.1 2.07e-02    -  1.00e+00 5.00e-01f  2
  31  1.5745223e+00 7.50e-02 4.27e+01  -1.1 3.74e-02    -  1.00e+00 1.00e+00H  1
  32  1.1632611e+00 4.49e-02 4.75e+01  -1.1 3.74e-02    -  1.00e+00 1.00e+00f  1
  33  1.1231329e+00 2.17e-02 2.94e+01  -1.1 3.16e-02    -  1.00e+00 5.00e-01h  2
  34  1.1979557e+00 2.00e-02 2.15e+01  -1.1 1.47e-02    -  1.00e+00 1.00e+00h  1
  35  1.1594913e+00 1.30e-02 3.24e+01  -1.1 3.05e-02    -  1.00e+00 8.75e-01h  1
  36  1.1417593e+00 8.68e-03 3.95e+01  -1.1 1.74e-02    -  1.00e+00 5.00e-01f  2
  37  9.6381885e-01 1.21e-02 5.08e+01  -1.7 2.81e-02    -  1.00e+00 9.58e-01f  1
  38  8.6235017e-01 9.86e-03 3.68e+01  -1.7 7.38e-02    -  1.00e+00 1.00e+00f  1
  39  7.8102112e-01 6.49e-03 3.30e+01  -2.4 5.75e-03    -  1.00e+00 6.33e-01h  1
iter    objective    inf_pr   inf_du lg(mu)  ||d||  lg(rg) alpha_du alpha_pr  ls
  40  7.4650824e-01 1.78e-02 3.87e+01  -2.7 1.78e-02    -  1.00e+00 8.98e-01h  1
  41  7.3603177e-01 6.94e-03 2.80e+01  -2.8 1.04e-02    -  1.00e+00 6.75e-01h  1
  42  7.3627603e-01 9.87e-03 3.87e+01  -2.3 9.38e-03    -  3.28e-01 2.45e-01F  1
  43  7.8488755e-01 1.04e-02 8.71e+01  -2.7 7.47e-03    -  9.96e-02 7.12e-01H  1
  44  7.6640034e-01 8.34e-03 3.42e+01  -2.7 3.73e-03    -  1.00e+00 5.00e-01f  2
  45  7.3674196e-01 8.01e-03 1.62e+01  -2.7 8.67e-03    -  7.36e-01 5.00e-01h  2
  46  7.3062652e-01 5.66e-03 1.37e+01  -2.7 2.94e-03    -  1.00e+00 3.61e-01h  1
  47  7.3142171e-01 3.94e-03 2.19e+01  -3.3 4.05e-03    -  9.97e-01 4.03e-01H  1
  48  7.1673042e-01 1.28e-02 9.72e+00  -3.8 3.60e-03    -  1.00e+00 5.89e-01h  1
  49  7.4056572e-01 6.10e-03 3.97e+01  -3.4 4.76e-03    -  3.87e-01 6.38e-01H  1
iter    objective    inf_pr   inf_du lg(mu)  ||d||  lg(rg) alpha_du alpha_pr  ls
  50  7.1854407e-01 4.94e-03 1.73e+01  -3.7 2.93e-03    -  1.00e+00 1.00e+00h  1
  51  7.0161307e-01 4.02e-02 2.63e+01  -2.7 2.73e-02    -  1.00e+00 2.80e-01f  1
  52  7.2692806e-01 1.56e-02 1.29e+01  -3.0 6.68e-03    -  1.00e+00 1.00e+00h  1
  53  8.1939775e-01 5.45e-03 2.67e+01  -3.1 9.27e-03    -  5.09e-01 1.00e+00H  1
  54  7.1612698e-01 2.11e-02 1.02e+01  -3.1 7.86e-03    -  4.27e-01 1.00e+00f  1
  55  7.0804876e-01 1.79e-02 1.04e+01  -2.8 9.83e-03    -  1.00e+00 2.30e-01h  2
  56  7.0752400e-01 7.78e-03 1.21e+01  -2.9 1.82e-03    -  1.00e+00 1.00e+00h  1
  57  7.0388699e-01 7.61e-03 9.97e+00  -3.3 2.80e-03    -  1.00e+00 3.96e-01h  2
  58  7.0397460e-01 4.65e-03 8.31e+00  -3.0 1.42e-03    -  1.00e+00 7.49e-01h  1
  59  7.2510749e-01 2.46e-02 6.03e+00  -2.7 5.77e-03    -  1.00e+00 1.00e+00f  1
iter    objective    inf_pr   inf_du lg(mu)  ||d||  lg(rg) alpha_du alpha_pr  ls
  60  7.0762199e-01 2.10e-02 4.53e+00  -2.8 8.99e-03    -  9.60e-01 1.00e+00h  1
  61  6.9801277e-01 2.03e-02 4.60e+00  -2.8 1.52e-02    -  9.87e-01 2.36e-01H  1
  62  6.9913334e-01 1.50e-02 5.88e+00  -3.1 1.03e-02    -  1.00e+00 6.84e-01h  1
  63  7.1105355e-01 5.10e-03 6.75e+00  -2.8 2.09e-03    -  1.00e+00 1.00e+00h  1
  64  7.0584780e-01 1.45e-02 6.97e+00  -2.9 2.57e-03    -  1.00e+00 1.00e+00h  1
  65  7.0193964e-01 1.69e-02 6.89e+00  -2.9 4.77e-03    -  8.33e-01 3.35e-01h  2
  66  7.0072162e-01 7.78e-03 6.89e+00  -2.9 3.00e-03    -  9.42e-01 1.00e+00h  1
  67  7.2190243e-01 9.83e-03 1.98e+01  -3.3 4.31e-03    -  8.36e-01 7.49e-01H  1
  68  7.1700263e-01 6.31e-03 1.66e+01  -3.3 1.72e-03    -  3.19e-01 3.51e-01h  1
  69  7.0780414e-01 5.31e-02 2.18e+01  -3.3 5.40e-02    -  8.19e-02 1.15e-01f  1
iter    objective    inf_pr   inf_du lg(mu)  ||d||  lg(rg) alpha_du alpha_pr  ls
  70  6.8385023e-01 3.58e-02 1.24e+01  -3.3 5.04e-03    -  1.54e-01 6.37e-01f  1
  71  7.1458399e-01 5.47e-02 7.82e+00  -2.8 4.80e-03    -  8.02e-01 1.00e+00f  1
  72  7.0135301e-01 1.99e-02 7.37e+00  -2.9 3.26e-03    -  1.00e+00 5.85e-01h  1
  73  6.9393432e-01 1.18e-02 6.93e+00  -2.9 3.30e-03    -  5.40e-01 5.00e-01f  2
  74  6.9866508e-01 1.69e-02 4.94e+00  -3.2 1.93e-03    -  1.00e+00 1.00e+00h  1
  75  6.9610995e-01 9.83e-03 6.31e+00  -3.3 1.70e-03    -  1.00e+00 8.69e-01h  1
  76  6.9596535e-01 5.11e-03 8.21e+00  -3.8 1.50e-03    -  1.00e+00 1.00e+00h  1
  77  6.9457078e-01 3.80e-03 7.44e+00  -3.9 6.32e-04    -  1.00e+00 5.51e-01h  1
  78  6.9663149e-01 3.96e-03 1.73e+01  -3.9 4.82e-04    -  1.00e+00 6.18e-01h  1
  79  6.9684219e-01 3.41e-03 2.22e+01  -4.5 8.05e-04    -  1.00e+00 1.41e-01h  1
iter    objective    inf_pr   inf_du lg(mu)  ||d||  lg(rg) alpha_du alpha_pr  ls
  80  6.9435978e-01 4.20e-03 9.50e+00  -4.1 6.72e-04    -  1.00e+00 6.89e-01h  1
  81  7.5043410e-01 1.90e-02 5.89e+01  -2.2 2.07e-02    -  1.00e+00 1.00e+00f  1
  82  7.5164628e-01 7.91e-03 3.76e+01  -2.1 8.54e-03    -  1.00e+00 9.49e-01h  1
  83  7.4960351e-01 5.00e-03 1.61e+01  -2.1 4.44e-03    -  1.00e+00 1.00e+00f  1
  84  7.4668771e-01 7.23e-03 1.81e+01  -2.1 1.75e-03    -  1.00e+00 1.00e+00h  1
  85  7.4278814e-01 2.99e-03 1.34e+01  -2.1 5.40e-03    -  1.00e+00 9.78e-01h  1
  86  7.1520704e-01 6.32e-03 2.82e+01  -2.7 7.72e-03    -  1.00e+00 8.78e-01h  1
  87  7.0916891e-01 2.86e-03 2.03e+01  -2.8 6.09e-03    -  1.00e+00 1.00e+00h  1
  88  7.1020377e-01 4.20e-03 3.87e+01  -2.8 1.30e-03    -  1.00e+00 1.00e+00h  1
  89  7.1180719e-01 4.03e-03 8.43e+01  -2.8 9.70e-04    -  1.00e+00 1.00e+00h  1
iter    objective    inf_pr   inf_du lg(mu)  ||d||  lg(rg) alpha_du alpha_pr  ls
  90  7.0797527e-01 3.04e-03 1.23e+02  -2.8 1.07e-03    -  1.00e+00 4.43e-01H  1
  91  7.0425522e-01 3.43e-03 3.82e+02  -3.6 2.76e-03    -  1.00e+00 5.94e-01h  1
  92  7.0166767e-01 2.39e-03 1.06e+02  -4.2 2.80e-03    -  1.00e+00 3.95e-01h  1
  93  7.0159507e-01 2.38e-03 6.69e+03  -4.3 3.59e-03    -  1.00e+00 1.65e-02h  2
  94  7.0157796e-01 2.37e-03 1.02e+04  -3.6 6.99e-03    -  7.92e-01 5.03e-03h  5
  95  7.6131117e-01 3.11e-03 1.10e+04  -2.1 8.27e-02    -  1.00e+00 3.57e-01f  1
  96  8.3858824e-01 6.71e-03 1.80e+04  -1.6 8.76e-03    -  6.69e-01 1.00e+00f  1
  97  8.0773675e-01 3.48e-03 2.22e+04  -1.6 2.97e-02    -  4.36e-01 5.81e-01h  1
  98  7.6589125e-01 3.05e-03 2.29e+03  -1.6 5.24e-03    -  1.00e+00 1.00e+00f  1
  99  7.9588771e-01 2.45e-03 3.42e+03  -1.6 1.42e-02    -  8.83e-01 1.00e+00f  1
iter    objective    inf_pr   inf_du lg(mu)  ||d||  lg(rg) alpha_du alpha_pr  ls
 100  7.9977852e-01 1.75e-03 2.04e+03  -1.6 6.61e-03    -  1.00e+00 6.62e-01h  1
 101  8.2468194e-01 1.79e-03 4.74e+03  -1.6 4.12e-02    -  5.58e-01 2.85e-01f  2
 102  8.3205843e-01 1.75e-03 4.62e+03  -1.6 2.11e-02    -  4.53e-01 3.12e-02h  6
 103  8.8864374e-01 1.53e-03 7.06e+03  -1.6 6.72e-03    -  5.64e-01 2.37e-01h  3
 104  8.9531189e-01 1.48e-03 6.93e+03  -1.6 1.33e-02    -  1.00e+00 3.12e-02h  6
 105  1.6250795e+00 2.42e-01 2.86e+03  -0.8 2.15e-01    -  1.00e+00 6.87e-01f  1
 106  1.4548298e+00 2.33e-01 1.89e+03  -0.8 4.06e-01    -  1.00e+00 4.52e-01f  1
 107  1.1700776e+00 1.70e-02 5.54e+02  -0.8 1.19e-01    -  5.64e-01 1.00e+00f  1
 108  1.3193967e+00 2.06e-02 5.11e+01  -0.8 3.50e-02    -  1.00e+00 1.00e+00f  1
 109  1.4553220e+00 2.99e-02 5.89e+01  -0.8 1.87e-02    -  1.00e+00 1.00e+00f  1
iter    objective    inf_pr   inf_du lg(mu)  ||d||  lg(rg) alpha_du alpha_pr  ls
 110  1.3606081e+00 1.44e-02 7.02e+01  -0.8 1.77e-02    -  1.00e+00 1.00e+00h  1
 111  1.3199992e+00 7.04e-03 1.00e+02  -0.8 4.42e-02    -  1.00e+00 1.00e+00h  1
 112  1.3494173e+00 1.34e-02 2.84e+01  -0.8 3.76e-02    -  1.00e+00 1.00e+00f  1
 113  1.3457758e+00 1.37e-02 9.12e+01  -0.8 1.16e-02    -  1.00e+00 8.95e-01H  1
 114  1.4294479e+00 1.14e-02 1.22e+02  -0.8 1.44e-02    -  1.00e+00 1.00e+00F  1
 115  1.3647708e+00 6.78e-03 8.98e+01  -0.8 1.84e-02    -  1.00e+00 5.00e-01f  2
 116  1.3943858e+00 2.03e-03 1.41e+01  -0.8 1.42e-02    -  1.00e+00 1.00e+00h  1
 117  1.3938307e+00 2.00e-03 5.64e+01  -0.8 3.01e-02    -  1.00e+00 3.12e-02h  6
 118  1.3716382e+00 2.33e-03 1.59e+02  -0.8 2.58e-02    -  1.00e+00 1.00e+00h  1
 119  1.3747326e+00 2.00e-03 1.48e+02  -0.8 8.30e-03    -  1.00e+00 6.25e-02h  5
iter    objective    inf_pr   inf_du lg(mu)  ||d||  lg(rg) alpha_du alpha_pr  ls
 120  1.3876992e+00 7.89e-04 6.76e+01  -0.8 1.72e-02    -  1.00e+00 5.00e-01f  2
 121  1.3866260e+00 2.06e-03 1.70e+02  -0.8 4.74e-02    -  1.00e+00 6.40e-01H  1
 122  1.3815925e+00 1.10e-04 3.06e+01  -0.8 3.20e-03    -  1.00e+00 1.00e+00f  1
 123  1.3933165e+00 1.10e-03 1.65e+02  -0.8 1.82e-02    -  1.00e+00 1.00e+00H  1
 124  1.3874958e+00 8.53e-04 5.01e+01  -0.8 1.72e-02    -  1.00e+00 2.50e-01f  3
 125  1.3806784e+00 6.12e-04 6.55e+01  -0.8 1.06e-02    -  1.00e+00 1.25e-01f  4
 126  1.3796458e+00 5.47e-04 5.99e+01  -0.8 3.58e-03    -  1.00e+00 3.27e-01H  1
 127  1.2063864e+00 2.42e-04 1.31e+02  -1.8 6.04e-02    -  1.00e+00 1.00e+00f  1
 128  8.8034511e-01 1.98e-02 6.61e+00  -1.8 1.54e-01    -  5.62e-01 5.70e-01f  1
 129  7.9377687e-01 1.43e-02 2.27e+01  -1.8 3.35e-02    -  6.90e-01 7.28e-01f  1
iter    objective    inf_pr   inf_du lg(mu)  ||d||  lg(rg) alpha_du alpha_pr  ls
 130  9.1422844e-01 4.76e-03 1.26e+01  -1.8 1.95e-02    -  1.00e+00 1.00e+00h  1
 131  8.3907634e-01 1.30e-02 1.69e+01  -1.8 8.58e-03    -  1.00e+00 1.00e+00h  1
 132  7.6543975e-01 2.47e-02 2.35e+01  -1.8 1.11e-02    -  7.14e-01 5.00e-01h  2
 133  7.9204464e-01 1.95e-02 1.66e+01  -1.8 1.02e-02    -  9.56e-01 5.00e-01h  2
 134  7.6140630e-01 2.98e-02 8.63e+00  -1.8 6.49e-03    -  1.00e+00 1.00e+00h  1
 135  7.8369623e-01 6.53e-03 1.00e+01  -1.8 1.18e-02    -  1.00e+00 9.86e-01h  1
 136  8.0541360e-01 3.48e-02 1.35e+01  -1.8 5.80e-03    -  1.00e+00 1.00e+00f  1
 137  7.8451818e-01 1.88e-02 9.03e+00  -1.8 8.35e-03    -  1.00e+00 1.00e+00h  1
 138  8.4334332e-01 1.80e-02 1.46e+01  -1.8 5.94e-03    -  7.34e-01 1.00e+00H  1
 139  7.9463631e-01 9.16e-03 1.23e+01  -1.8 3.88e-03    -  1.00e+00 1.00e+00h  1
iter    objective    inf_pr   inf_du lg(mu)  ||d||  lg(rg) alpha_du alpha_pr  ls
 140  7.8627163e-01 1.45e-02 2.98e+01  -1.8 4.39e-03    -  1.00e+00 5.82e-01H  1
 141  8.0761975e-01 1.02e-02 2.55e+01  -1.8 2.77e-03    -  1.00e+00 1.00e+00F  1
 142  7.9546195e-01 4.21e-03 1.81e+01  -1.8 2.92e-03    -  1.00e+00 1.00e+00h  1
 143  7.9618084e-01 1.14e-03 5.22e+00  -1.8 1.28e-03    -  1.00e+00 5.00e-01h  2
 144  7.8932172e-01 3.69e-03 5.78e+01  -1.8 3.35e-03    -  1.00e+00 7.90e-01h  1
 145  7.9125142e-01 9.57e-04 3.45e+01  -1.8 3.04e-03    -  1.00e+00 1.00e+00f  1
 146  7.8723949e-01 2.52e-03 6.63e+01  -1.8 1.54e-03    -  1.00e+00 1.00e+00h  1
 147  7.8819329e-01 1.90e-03 5.72e+01  -1.8 1.35e-03    -  1.00e+00 2.50e-01h  3
 148  7.8556526e-01 7.71e-04 9.36e+00  -1.8 2.57e-03    -  1.00e+00 5.00e-01h  2
 149  7.8419954e-01 8.94e-04 7.22e+01  -1.8 1.15e-03    -  1.00e+00 4.51e-01H  1
iter    objective    inf_pr   inf_du lg(mu)  ||d||  lg(rg) alpha_du alpha_pr  ls
 150  7.6522827e-01 9.15e-04 3.98e+01  -3.0 2.19e-02    -  1.00e+00 1.00e+00h  1
 151  7.3119843e-01 6.54e-04 4.67e+01  -3.0 1.14e-02    -  1.00e+00 5.93e-01h  1
 152  7.1220332e-01 1.15e-02 1.83e+01  -3.0 3.16e-03    -  7.16e-01 5.69e-01f  1
 153  7.1638709e-01 5.32e-03 1.90e+01  -3.0 2.47e-02    -  1.00e+00 5.00e-01f  2
 154  7.0249307e-01 7.75e-03 2.17e+01  -3.0 1.26e-02    -  1.00e+00 9.86e-01h  1
 155  7.1075320e-01 4.90e-03 1.37e+01  -3.0 1.89e-03    -  1.00e+00 1.00e+00h  1
 156  7.0484078e-01 1.08e-03 9.70e+00  -3.0 1.88e-03    -  1.00e+00 1.00e+00h  1
 157  7.0158595e-01 1.74e-02 2.53e+01  -3.0 2.52e-03    -  1.00e+00 1.00e+00h  1
 158  7.0070314e-01 1.18e-02 2.24e+01  -3.0 2.77e-03    -  6.10e-01 3.18e-01h  2
 159  6.9599926e-01 1.60e-02 2.30e+01  -3.0 1.33e-02    -  4.44e-01 1.23e-01h  3
iter    objective    inf_pr   inf_du lg(mu)  ||d||  lg(rg) alpha_du alpha_pr  ls
 160  7.0296717e-01 1.46e-03 8.77e+00  -3.0 1.38e-03    -  1.00e+00 1.00e+00h  1
 161  6.9848257e-01 1.62e-02 8.45e+00  -3.0 2.75e-03    -  9.17e-01 1.00e+00h  1
 162  6.9724530e-01 1.45e-02 8.34e+00  -3.0 2.68e-03    -  1.00e+00 9.22e-02h  2
 163  6.9134253e-01 1.83e-02 8.05e+00  -3.0 7.63e-03    -  4.27e-01 2.35e-01h  3
 164  6.9166201e-01 2.21e-02 4.27e+00  -3.6 1.76e-03    -  1.00e+00 1.00e+00h  1
 165  6.9564992e-01 4.94e-03 7.97e+00  -3.3 2.34e-03    -  1.00e+00 1.00e+00h  1
 166  6.9330817e-01 6.80e-03 8.18e+00  -3.4 1.00e-03    -  1.00e+00 1.00e+00h  1
 167  6.9359595e-01 3.05e-03 6.58e+00  -4.1 1.17e-03    -  1.00e+00 9.75e-01h  1
 168  6.9083357e-01 3.70e-03 7.62e+00  -4.5 5.45e-04    -  1.00e+00 9.61e-01h  1
 169  6.9060993e-01 1.76e-03 5.81e+00  -4.5 6.46e-04    -  1.00e+00 5.67e-01h  1
iter    objective    inf_pr   inf_du lg(mu)  ||d||  lg(rg) alpha_du alpha_pr  ls
 170  6.8952566e-01 3.82e-03 6.79e+00  -4.9 7.63e-04    -  1.00e+00 4.92e-01h  2
 171  6.9201517e-01 8.27e-04 5.32e+00  -4.6 5.13e-04    -  1.00e+00 1.00e+00h  1
 172  6.9931990e-01 5.41e-03 9.43e+00  -2.9 4.64e-03    -  1.00e+00 1.00e+00f  1
 173  7.0077413e-01 7.26e-04 1.29e+01  -2.9 1.18e-03    -  1.00e+00 1.00e+00h  1
 174  7.0054156e-01 1.01e-03 4.12e+00  -2.9 7.38e-04    -  9.75e-01 1.00e+00h  1
 175  6.9957697e-01 7.99e-03 5.75e+00  -2.9 1.73e-02    -  1.00e+00 3.24e-01h  2
 176  6.9960636e-01 6.69e-03 6.25e+00  -2.9 3.27e-03    -  1.00e+00 1.25e-01h  4
 177  7.0127368e-01 3.42e-03 5.48e+00  -2.9 2.07e-03    -  1.00e+00 1.00e+00h  1
 178  6.9826829e-01 4.65e-03 3.12e+00  -2.9 1.45e-03    -  1.00e+00 1.00e+00h  1
 179  6.9580555e-01 3.57e-03 2.89e+00  -2.9 3.09e-03    -  1.00e+00 3.71e-01h  2
iter    objective    inf_pr   inf_du lg(mu)  ||d||  lg(rg) alpha_du alpha_pr  ls
 180  6.9558561e-01 4.02e-03 4.81e+00  -2.9 8.33e-04    -  1.00e+00 2.50e-01h  3
 181  6.9800103e-01 2.52e-03 5.96e+00  -2.9 8.54e-04    -  1.00e+00 1.00e+00h  1
 182  6.9936782e-01 8.54e-04 8.62e+00  -2.9 3.30e-04    -  1.00e+00 1.00e+00h  1
 183  7.0044458e-01 4.23e-04 7.93e+00  -2.9 2.00e-04    -  1.00e+00 1.00e+00h  1
 184  6.9709516e-01 3.77e-04 6.98e+00  -4.2 2.95e-03    -  1.00e+00 7.95e-01h  1
 185  6.9507647e-01 3.83e-04 4.56e+00  -5.1 1.43e-03    -  1.00e+00 8.61e-01h  1
 186  6.9374347e-01 2.33e-04 1.51e+01  -5.4 3.67e-04    -  1.00e+00 3.74e-01h  1
 187  6.9289327e-01 2.19e-04 1.61e+01  -6.7 6.76e-04    -  1.00e+00 1.60e-01h  1
 188  6.9177634e-01 2.77e-04 9.04e+00  -6.5 6.21e-04    -  1.00e+00 2.49e-01h  1
 189  6.9125962e-01 2.13e-04 4.94e+00  -5.4 3.96e-04    -  1.00e+00 3.23e-01h  1
iter    objective    inf_pr   inf_du lg(mu)  ||d||  lg(rg) alpha_du alpha_pr  ls
 190  6.9273853e-01 7.32e-05 5.63e+00  -5.2 2.79e-04    -  1.00e+00 1.00e+00H  1
 191  6.9202983e-01 1.13e-04 5.72e+00  -6.4 1.29e-04    -  1.00e+00 9.79e-01h  1
 192  6.9140774e-01 5.31e-05 3.28e+00  -5.0 2.14e-04    -  1.00e+00 8.13e-01h  1
 193  6.9138497e-01 5.98e-04 5.91e+00  -5.9 8.23e-04    -  1.00e+00 1.97e-01h  1
 194  6.9124842e-01 4.12e-05 2.60e+00  -5.9 5.19e-05    -  1.00e+00 1.00e+00h  1
 195  6.9524115e-01 4.75e-03 5.07e+00  -3.9 9.43e-04    -  9.16e-01 1.00e+00f  1
 196  6.9372582e-01 4.09e-03 4.65e+00  -4.1 1.08e-03    -  1.00e+00 2.25e-01h  1
 197  6.9302374e-01 2.33e-03 6.63e+00  -4.1 1.13e-03    -  1.00e+00 1.00e+00f  1
 198  6.9289124e-01 2.49e-03 4.23e+00  -4.1 3.90e-03    -  1.00e+00 8.31e-02h  4
 199  6.9124508e-01 2.86e-03 5.87e+00  -4.1 9.40e-04    -  1.00e+00 1.00e+00h  1
iter    objective    inf_pr   inf_du lg(mu)  ||d||  lg(rg) alpha_du alpha_pr  ls
 200  6.9107580e-01 2.77e-03 6.28e+00  -4.1 2.96e-03    -  1.00e+00 2.50e-01h  3

Number of Iterations....: 200

                                   (scaled)                 (unscaled)
Objective...............:   6.9107580184936523e-01    6.9107580184936523e-01
Dual infeasibility......:   6.2823940055326801e+00    6.2823940055326801e+00
Constraint violation....:   2.7724784077906607e-03    2.7724784077906607e-03
Variable bound violation:   0.0000000000000000e+00    0.0000000000000000e+00
Complementarity.........:   1.2178639917302892e-04    1.2178639917302892e-04
Overall NLP error.......:   6.2823940055326801e+00    6.2823940055326801e+00


Number of objective function evaluations             = 370
Number of objective gradient evaluations             = 201
Number of equality constraint evaluations            = 0
Number of inequality constraint evaluations          = 370
Number of equality constraint Jacobian evaluations   = 0
Number of inequality constraint Jacobian evaluations = 201
Number of Lagrangian Hessian evaluations             = 0
Total seconds in IPOPT                               = 2.179

EXIT: Maximum Number of Iterations Exceeded.
